benchmarks_vrp/CMT12/no_cluster/CMT12_4.vrp
NAME: CMT12_4
TYPE: CVRP
COMMENT: 819.56 - Cluster Nr.4
DIMENSION: 11
CAPACITY: 200
EDGE_WEIGHT_TYPE: EUC_2D
NODE_COORD_TYPE: TWOD_COORDS
NODE_COORD_SECTION: 
6 50 40
7 50 30
9 40 50
1 47 40
5 53 35
3 60 55
11 65 55
8 53 30
2 50 35
4 48 40
10 66 55
DEPOT_SECTION: 
9
-1
DEMAND_SECTION: 
4 10
1 10
5 50
7 10
10 10
6 50
2 20
11 20
3 10
9 0
8 10
EOF
