benchmarks_vrp/CMT12/no_cluster/CMT12_4.tour
NAME: CMT12_4 solution
TYPE: TOUR
TOUR_SECTION:
9 1 4 6 2 7 8 5 10 11 3 -1
-1
EOF